
Gurobi 9.5.2 (mac64[arm]) logging started Mon Apr 24 16:27:02 2023

Set parameter LogFile to value "Java/output/iterative_model/scenario_seed_3_nJob_30_machineCount_1/mip_increment_1/log.txt"
Gurobi Optimizer version 9.5.2 build v9.5.2rc0 (mac64[arm])
Thread count: 8 physical cores, 8 logical processors, using up to 8 threads
Optimize a model with 1508 rows, 7290 columns and 91285 nonzeros
Model fingerprint: 0x9fd704c6
Variable types: 0 continuous, 7290 integer (7290 binary)
Coefficient statistics:
  Matrix range     [1e+00, 3e+02]
  Objective range  [2e+01, 6e+06]
  Bounds range     [1e+00, 1e+00]
  RHS range        [1e+00, 1e+00]
Presolve removed 221 rows and 960 columns
Presolve time: 0.13s
Presolved: 1287 rows, 6330 columns, 77434 nonzeros
Variable types: 0 continuous, 6330 integer (6324 binary)

Root relaxation: objective 2.319428e+04, 2440 iterations, 0.08 seconds (0.19 work units)

    Nodes    |    Current Node    |     Objective Bounds      |     Work
 Expl Unexpl |  Obj  Depth IntInf | Incumbent    BestBd   Gap | It/Node Time

     0     0 23194.2816    0  108          - 23194.2816      -     -    0s
H    0     0                    2.187443e+07 23194.2816   100%     -    0s
H    0     0                    3965216.0000 23194.2816  99.4%     -    0s
H    0     0                    1110784.0000 25970.3726  97.7%     -    0s
     0     0 26346.6253    0  138 1110784.00 26346.6253  97.6%     -    0s
H    0     0                    1109968.0000 26346.6253  97.6%     -    0s
H    0     0                    1093344.0000 26346.6253  97.6%     -    0s
     0     0 29223.6696    0  161 1093344.00 29223.6696  97.3%     -    0s
H    0     0                    382880.00000 29223.6696  92.4%     -    0s
     0     0 30445.8033    0  149 382880.000 30445.8033  92.0%     -    0s
     0     0 30504.1031    0  144 382880.000 30504.1031  92.0%     -    0s
     0     0 30504.1031    0  147 382880.000 30504.1031  92.0%     -    0s
H    0     0                    336240.00000 33807.7008  89.9%     -    0s
     0     0 52098.6251    0  148 336240.000 52098.6251  84.5%     -    0s
     0     0 52098.6251    0   94 336240.000 52098.6251  84.5%     -    0s
H    0     0                    332336.00000 52098.6251  84.3%     -    0s
H    0     0                    323280.00000 52098.6251  83.9%     -    0s
     0     0 52098.6251    0  135 323280.000 52098.6251  83.9%     -    1s
     0     0 52098.6251    0  142 323280.000 52098.6251  83.9%     -    1s
     0     0 52141.2257    0  153 323280.000 52141.2257  83.9%     -    1s
     0     0 52141.2768    0  157 323280.000 52141.2768  83.9%     -    1s
     0     0 71982.2903    0  144 323280.000 71982.2903  77.7%     -    1s
     0     0 74712.4596    0  154 323280.000 74712.4596  76.9%     -    1s
     0     0 74759.3037    0  164 323280.000 74759.3037  76.9%     -    1s
     0     0 74759.3037    0  163 323280.000 74759.3037  76.9%     -    1s
     0     0 77486.1969    0  195 323280.000 77486.1969  76.0%     -    1s
     0     0 78116.6462    0  196 323280.000 78116.6462  75.8%     -    1s
     0     0 78139.7556    0  193 323280.000 78139.7556  75.8%     -    1s
H    0     0                    288656.00000 78139.7556  72.9%     -    1s
     0     0 79894.6270    0  221 288656.000 79894.6270  72.3%     -    1s
     0     0 80352.8999    0  239 288656.000 80352.8999  72.2%     -    1s
     0     0 80437.1060    0  240 288656.000 80437.1060  72.1%     -    1s
     0     0 80461.5577    0  240 288656.000 80461.5577  72.1%     -    1s
     0     0 81933.9781    0  239 288656.000 81933.9781  71.6%     -    1s
     0     0 82065.7554    0  242 288656.000 82065.7554  71.6%     -    1s
     0     0 82086.2230    0  246 288656.000 82086.2230  71.6%     -    1s
     0     0 83617.5326    0  248 288656.000 83617.5326  71.0%     -    1s
     0     0 83889.5915    0  247 288656.000 83889.5915  70.9%     -    1s
     0     0 83944.9905    0  256 288656.000 83944.9905  70.9%     -    1s
     0     0 83951.2146    0  261 288656.000 83951.2146  70.9%     -    1s
     0     0 84206.3840    0  265 288656.000 84206.3840  70.8%     -    1s
     0     0 84258.8667    0  288 288656.000 84258.8667  70.8%     -    1s
     0     0 84270.5814    0  282 288656.000 84270.5814  70.8%     -    1s
     0     0 84806.1886    0  279 288656.000 84806.1886  70.6%     -    1s
     0     0 84911.6009    0  282 288656.000 84911.6009  70.6%     -    1s
     0     0 84930.5435    0  295 288656.000 84930.5435  70.6%     -    1s
     0     0 85162.3969    0  295 288656.000 85162.3969  70.5%     -    2s
     0     0 85162.3969    0  295 288656.000 85162.3969  70.5%     -    2s
H    0     0                    231840.00000 85199.8954  63.3%     -    2s
     0     2 85199.8954    0  289 231840.000 85199.8954  63.3%     -    2s
H   31    40                    131696.00000 94061.1279  28.6%   842    2s
H   67    68                    131392.00000 95865.3289  27.0%   810    3s
  1242   627     cutoff   34      131392.000 105425.103  19.8%   139    5s

Cutting planes:
  Gomory: 3
  Cover: 190
  Clique: 122
  MIR: 149
  StrongCG: 72
  GUB cover: 63
  Inf proof: 4
  Zero half: 11
  Mod-K: 2
  RLT: 6

Explored 10941 nodes (857183 simplex iterations) in 9.98 seconds (24.95 work units)
Thread count was 8 (of 8 available processors)

Solution count 10: 131392 131696 231840 ... 1.09334e+06

Optimal solution found (tolerance 1.00e-04)
Best objective 1.313920000000e+05, best bound 1.313920000000e+05, gap 0.0000%

Gurobi 9.5.2 (mac64[arm]) logging started Mon Apr 24 16:27:12 2023

Set parameter LogFile to value "Java/output/iterative_model/scenario_seed_3_nJob_30_machineCount_1/mip_increment_1/log.txt"
Gurobi Optimizer version 9.5.2 build v9.5.2rc0 (mac64[arm])
Thread count: 8 physical cores, 8 logical processors, using up to 8 threads
Optimize a model with 1498 rows, 4142 columns and 45448 nonzeros
Model fingerprint: 0x702421ee
Variable types: 0 continuous, 4142 integer (4142 binary)
Coefficient statistics:
  Matrix range     [1e+00, 3e+02]
  Objective range  [3e+02, 8e+05]
  Bounds range     [1e+00, 1e+00]
  RHS range        [1e+00, 1e+00]
Found heuristic solution: objective 2074900.0000
Presolve removed 685 rows and 432 columns
Presolve time: 0.05s
Presolved: 813 rows, 3710 columns, 38225 nonzeros
Variable types: 0 continuous, 3710 integer (3708 binary)
Found heuristic solution: objective 1281164.0000

Root relaxation: objective 3.711685e+04, 1251 iterations, 0.03 seconds (0.05 work units)

    Nodes    |    Current Node    |     Objective Bounds      |     Work
 Expl Unexpl |  Obj  Depth IntInf | Incumbent    BestBd   Gap | It/Node Time

     0     0 37116.8492    0   39 1281164.00 37116.8492  97.1%     -    0s
H    0     0                    1001560.0000 37116.8492  96.3%     -    0s
H    0     0                    79568.000000 37116.8492  53.4%     -    0s
H    0     0                    78148.000000 37116.8492  52.5%     -    0s
     0     0 38680.5417    0   59 78148.0000 38680.5417  50.5%     -    0s
     0     0 38680.5417    0   43 78148.0000 38680.5417  50.5%     -    0s
H    0     0                    78144.000000 38680.5417  50.5%     -    0s
     0     0 38854.2059    0   86 78144.0000 38854.2059  50.3%     -    0s
     0     0 40304.7360    0  101 78144.0000 40304.7360  48.4%     -    0s
     0     0 40523.4439    0  101 78144.0000 40523.4439  48.1%     -    0s
     0     0 40550.8175    0   99 78144.0000 40550.8175  48.1%     -    0s
     0     0 40579.0560    0  105 78144.0000 40579.0560  48.1%     -    0s
     0     0 40580.5041    0  103 78144.0000 40580.5041  48.1%     -    0s
     0     0 45015.4346    0   96 78144.0000 45015.4346  42.4%     -    0s
     0     0 48045.5188    0   90 78144.0000 48045.5188  38.5%     -    0s
     0     0 48908.2574    0   92 78144.0000 48908.2574  37.4%     -    0s
     0     0 48908.5571    0   94 78144.0000 48908.5571  37.4%     -    0s
H    0     0                    75712.000000 48908.5571  35.4%     -    0s
     0     0 57232.9356    0  102 75712.0000 57232.9356  24.4%     -    0s
     0     0 57397.5432    0  101 75712.0000 57397.5432  24.2%     -    0s
     0     0 57440.0181    0  114 75712.0000 57440.0181  24.1%     -    0s
     0     0 57443.4490    0  110 75712.0000 57443.4490  24.1%     -    0s
     0     0 57895.3466    0  128 75712.0000 57895.3466  23.5%     -    0s
     0     0 57975.0279    0  118 75712.0000 57975.0279  23.4%     -    0s
     0     0 57993.5227    0  133 75712.0000 57993.5227  23.4%     -    0s
     0     0 58006.6342    0  130 75712.0000 58006.6342  23.4%     -    0s
     0     0 58007.2766    0  130 75712.0000 58007.2766  23.4%     -    0s
     0     0 58238.2732    0  135 75712.0000 58238.2732  23.1%     -    0s
     0     0 58559.2075    0  129 75712.0000 58559.2075  22.7%     -    0s
     0     0 58577.4199    0  130 75712.0000 58577.4199  22.6%     -    0s
     0     0 58580.3133    0  143 75712.0000 58580.3133  22.6%     -    0s
     0     0 58873.2178    0  123 75712.0000 58873.2178  22.2%     -    0s
     0     0 58897.8104    0  129 75712.0000 58897.8104  22.2%     -    0s
     0     0 58898.8143    0  143 75712.0000 58898.8143  22.2%     -    0s
     0     0 60693.4660    0  125 75712.0000 60693.4660  19.8%     -    0s
     0     0 61280.9873    0  124 75712.0000 61280.9873  19.1%     -    0s
     0     0 61313.2405    0  138 75712.0000 61313.2405  19.0%     -    0s
     0     0 61315.3861    0  133 75712.0000 61315.3861  19.0%     -    0s
     0     0 64809.1823    0  134 75712.0000 64809.1823  14.4%     -    0s
     0     0 65138.4655    0  138 75712.0000 65138.4655  14.0%     -    0s
     0     0 65211.3292    0  142 75712.0000 65211.3292  13.9%     -    0s
     0     0 65213.8785    0  144 75712.0000 65213.8785  13.9%     -    0s
     0     0 66182.9193    0  118 75712.0000 66182.9193  12.6%     -    0s
     0     0 66229.4829    0  130 75712.0000 66229.4829  12.5%     -    0s
     0     0 66241.5995    0  134 75712.0000 66241.5995  12.5%     -    0s
     0     0 66958.4414    0  128 75712.0000 66958.4414  11.6%     -    0s
H    0     0                    69768.000000 66958.4414  4.03%     -    0s
     0     0 67798.8608    0  138 69768.0000 67798.8608  2.82%     -    0s
     0     0 67835.5796    0  140 69768.0000 67835.5796  2.77%     -    0s
     0     0 67842.2512    0  144 69768.0000 67842.2512  2.76%     -    0s
     0     0 68594.7320    0  114 69768.0000 68594.7320  1.68%     -    0s
     0     0 68594.7320    0   40 69768.0000 68594.7320  1.68%     -    0s
     0     0     cutoff    0      69768.0000 69768.0000  0.00%     -    0s

Cutting planes:
  Gomory: 6
  Cover: 4
  Implied bound: 1
  Clique: 26
  MIR: 8
  StrongCG: 6
  GUB cover: 10
  Zero half: 8
  RLT: 5

Explored 1 nodes (6648 simplex iterations) in 0.74 seconds (1.17 work units)
Thread count was 8 (of 8 available processors)

Solution count 8: 69768 75712 78144 ... 2.0749e+06

Optimal solution found (tolerance 1.00e-04)
Best objective 6.976800000000e+04, best bound 6.976800000000e+04, gap 0.0000%

Gurobi 9.5.2 (mac64[arm]) logging started Mon Apr 24 16:27:13 2023

Set parameter LogFile to value "Java/output/iterative_model/scenario_seed_3_nJob_30_machineCount_1/mip_increment_1/log.txt"
Gurobi Optimizer version 9.5.2 build v9.5.2rc0 (mac64[arm])
Thread count: 8 physical cores, 8 logical processors, using up to 8 threads
Optimize a model with 1502 rows, 3026 columns and 35717 nonzeros
Model fingerprint: 0x7575922c
Variable types: 0 continuous, 3026 integer (3026 binary)
Coefficient statistics:
  Matrix range     [1e+00, 3e+02]
  Objective range  [1e+02, 9e+04]
  Bounds range     [1e+00, 1e+00]
  RHS range        [1e+00, 1e+00]
Presolve removed 946 rows and 949 columns
Presolve time: 0.04s
Presolved: 556 rows, 2077 columns, 24490 nonzeros
Variable types: 0 continuous, 2077 integer (2075 binary)

Root relaxation: objective 1.801347e+04, 1634 iterations, 0.03 seconds (0.05 work units)

    Nodes    |    Current Node    |     Objective Bounds      |     Work
 Expl Unexpl |  Obj  Depth IntInf | Incumbent    BestBd   Gap | It/Node Time

     0     0 18013.4734    0   60          - 18013.4734      -     -    0s
H    0     0                    211002.00000 18013.4734  91.5%     -    0s
H    0     0                    174979.00000 18013.4734  89.7%     -    0s
H    0     0                    152939.00000 18013.4734  88.2%     -    0s
H    0     0                    94990.000000 18013.4734  81.0%     -    0s
     0     0 18327.5564    0   75 94990.0000 18327.5564  80.7%     -    0s
H    0     0                    61040.000000 18327.5564  70.0%     -    0s
H    0     0                    59834.000000 18327.5564  69.4%     -    0s
     0     0 18896.9432    0   90 59834.0000 18896.9432  68.4%     -    0s
     0     0 18971.2283    0   90 59834.0000 18971.2283  68.3%     -    0s
H    0     0                    59691.000000 19968.2714  66.5%     -    0s
H    0     0                    34203.000000 19968.2714  41.6%     -    0s
     0     0 19968.2714    0   83 34203.0000 19968.2714  41.6%     -    0s
     0     0 21471.8530    0  107 34203.0000 21471.8530  37.2%     -    0s
     0     0 21565.1734    0  113 34203.0000 21565.1734  36.9%     -    0s
     0     0 21596.3456    0  109 34203.0000 21596.3456  36.9%     -    0s
     0     0 21597.9235    0  117 34203.0000 21597.9235  36.9%     -    0s
     0     0 21615.6528    0  114 34203.0000 21615.6528  36.8%     -    0s
     0     0 21615.8210    0  117 34203.0000 21615.8210  36.8%     -    0s
     0     0 22967.9681    0  143 34203.0000 22967.9681  32.8%     -    0s
     0     0 23206.7517    0  145 34203.0000 23206.7517  32.1%     -    0s
     0     0 23279.0519    0  150 34203.0000 23279.0519  31.9%     -    0s
     0     0 23285.0507    0  152 34203.0000 23285.0507  31.9%     -    0s
     0     0 23291.5311    0  152 34203.0000 23291.5311  31.9%     -    0s
     0     0 23293.2684    0  151 34203.0000 23293.2684  31.9%     -    0s
     0     0 23834.1775    0  146 34203.0000 23834.1775  30.3%     -    0s
     0     0 23862.3238    0  144 34203.0000 23862.3238  30.2%     -    0s
     0     0 23876.3565    0  146 34203.0000 23876.3565  30.2%     -    0s
     0     0 23876.7577    0  150 34203.0000 23876.7577  30.2%     -    0s
     0     0 24614.8038    0  149 34203.0000 24614.8038  28.0%     -    0s
     0     0 24741.0284    0  160 34203.0000 24741.0284  27.7%     -    0s
H    0     0                    33541.000000 24754.3126  26.2%     -    0s
     0     0 24754.3126    0  157 33541.0000 24754.3126  26.2%     -    0s
     0     0 24759.5665    0  160 33541.0000 24759.5665  26.2%     -    0s
     0     0 24908.0520    0  147 33541.0000 24908.0520  25.7%     -    0s
     0     0 24908.0520    0   56 33541.0000 24908.0520  25.7%     -    0s
     0     0 24908.0520    0   99 33541.0000 24908.0520  25.7%     -    0s
     0     0 24908.0520    0  103 33541.0000 24908.0520  25.7%     -    0s
     0     0 24980.4083    0  140 33541.0000 24980.4083  25.5%     -    0s
H    0     0                    32130.000000 24980.4083  22.3%     -    0s
     0     0 25335.2492    0  132 32130.0000 25335.2492  21.1%     -    0s
     0     0 25338.3587    0  135 32130.0000 25338.3587  21.1%     -    0s
     0     0 25342.9756    0  132 32130.0000 25342.9756  21.1%     -    0s
     0     0 25342.9756    0  132 32130.0000 25342.9756  21.1%     -    0s
H    0     0                    31579.000000 25342.9756  19.7%     -    0s
     0     0 25815.8700    0  181 31579.0000 25815.8700  18.2%     -    0s
     0     0 26135.9124    0  155 31579.0000 26135.9124  17.2%     -    0s
     0     0 26142.2047    0  167 31579.0000 26142.2047  17.2%     -    0s
     0     0 26144.1058    0  168 31579.0000 26144.1058  17.2%     -    0s
     0     0 26804.5206    0  160 31579.0000 26804.5206  15.1%     -    1s
     0     0 27098.6101    0  189 31579.0000 27098.6101  14.2%     -    1s
     0     0 27137.8986    0  203 31579.0000 27137.8986  14.1%     -    1s
     0     0 27148.0037    0  200 31579.0000 27148.0037  14.0%     -    1s
     0     0 27153.8110    0  197 31579.0000 27153.8110  14.0%     -    1s
H    0     0                    31445.000000 27153.8110  13.6%     -    1s
     0     0 27507.4094    0  202 31445.0000 27507.4094  12.5%     -    1s
     0     0 27747.4299    0  188 31445.0000 27747.4299  11.8%     -    1s
     0     0 27883.4757    0  216 31445.0000 27883.4757  11.3%     -    1s
     0     0 27921.2369    0  214 31445.0000 27921.2369  11.2%     -    1s
     0     0 27933.2140    0  227 31445.0000 27933.2140  11.2%     -    1s
     0     0 27934.5191    0  212 31445.0000 27934.5191  11.2%     -    1s
     0     0 27980.1658    0  220 31445.0000 27980.1658  11.0%     -    1s
H    0     0                    30302.000000 27980.1658  7.66%     -    1s
     0     0 27986.9789    0  221 30302.0000 27986.9789  7.64%     -    1s
     0     0 28050.9420    0  211 30302.0000 28050.9420  7.43%     -    1s
     0     0 28050.9420    0  202 30302.0000 28050.9420  7.43%     -    1s
     0     0 28058.0561    0   61 30302.0000 28058.0561  7.41%     -    1s
     0     0 28058.0561    0  107 30302.0000 28058.0561  7.41%     -    1s
     0     0 28058.0561    0  107 30302.0000 28058.0561  7.41%     -    1s
     0     0 28058.0561    0  126 30302.0000 28058.0561  7.41%     -    1s
     0     0 28272.3517    0  152 30302.0000 28272.3517  6.70%     -    1s
     0     0 28432.5419    0  145 30302.0000 28432.5419  6.17%     -    1s
     0     0 28481.4998    0  156 30302.0000 28481.4998  6.01%     -    1s
     0     0 28552.2185    0  160 30302.0000 28552.2185  5.77%     -    1s
     0     0 28575.0874    0  157 30302.0000 28575.0874  5.70%     -    1s
     0     0 28576.7637    0  165 30302.0000 28576.7637  5.69%     -    1s
     0     0 28949.6266    0  126 30302.0000 28949.6266  4.46%     -    1s
     0     0 28984.3004    0  150 30302.0000 28984.3004  4.35%     -    1s
     0     0 28993.6672    0  165 30302.0000 28993.6672  4.32%     -    1s
     0     0 28994.9907    0  164 30302.0000 28994.9907  4.31%     -    1s
     0     0 29271.9068    0  150 30302.0000 29271.9068  3.40%     -    1s
     0     0 29535.7145    0  176 30302.0000 29535.7145  2.53%     -    1s
     0     0 29539.1980    0  175 30302.0000 29539.1980  2.52%     -    1s
     0     0 29762.6049    0  159 30302.0000 29762.6049  1.78%     -    1s
     0     0 29882.9142    0  190 30302.0000 29882.9142  1.38%     -    1s
     0     0 29893.5890    0  185 30302.0000 29893.5890  1.35%     -    1s
     0     0 29894.0508    0  185 30302.0000 29894.0508  1.35%     -    1s
     0     0 30007.2288    0  165 30302.0000 30007.2288  0.97%     -    1s
     0     0 30007.2288    0   29 30302.0000 30007.2288  0.97%     -    1s
     0     0     cutoff    0      30302.0000 30302.0000  0.00%     -    1s

Cutting planes:
  Gomory: 9
  Cover: 7
  Clique: 9
  MIR: 8
  StrongCG: 7
  GUB cover: 10
  Zero half: 4
  RLT: 5
  Relax-and-lift: 1

Explored 1 nodes (16217 simplex iterations) in 1.85 seconds (2.92 work units)
Thread count was 8 (of 8 available processors)

Solution count 10: 30302 31445 31579 ... 94990

Optimal solution found (tolerance 1.00e-04)
Best objective 3.030200000000e+04, best bound 3.030200000000e+04, gap 0.0000%

Gurobi 9.5.2 (mac64[arm]) logging started Mon Apr 24 16:27:15 2023

Set parameter LogFile to value "Java/output/iterative_model/scenario_seed_3_nJob_30_machineCount_1/mip_increment_1/log.txt"
Gurobi Optimizer version 9.5.2 build v9.5.2rc0 (mac64[arm])
Thread count: 8 physical cores, 8 logical processors, using up to 8 threads
Optimize a model with 1592 rows, 19926 columns and 239333 nonzeros
Model fingerprint: 0x9e2740b5
Variable types: 0 continuous, 19926 integer (19926 binary)
Coefficient statistics:
  Matrix range     [1e+00, 3e+02]
  Objective range  [1e+00, 6e+06]
  Bounds range     [1e+00, 1e+00]
  RHS range        [1e+00, 1e+00]

Warning: Completing partial solution with 19844 unfixed non-continuous variables out of 19926
User MIP start produced solution with objective 208069 (0.01s)
Loaded user MIP start with objective 208069

Presolve removed 62 rows and 1846 columns
Presolve time: 0.25s
Presolved: 1530 rows, 18080 columns, 214951 nonzeros
Variable types: 0 continuous, 18080 integer (18066 binary)
Found heuristic solution: objective 201850.00000

Root relaxation: objective 2.760364e+04, 18205 iterations, 1.49 seconds (3.58 work units)

    Nodes    |    Current Node    |     Objective Bounds      |     Work
 Expl Unexpl |  Obj  Depth IntInf | Incumbent    BestBd   Gap | It/Node Time

     0     0 27603.6351    0  257 201850.000 27603.6351  86.3%     -    1s
H    0     0                    200770.00000 27603.6351  86.3%     -    1s
H    0     0                    200558.00000 27603.6351  86.2%     -    1s
H    0     0                    194978.00000 27603.6351  85.8%     -    2s
     0     0 31271.9790    0  401 194978.000 31271.9790  84.0%     -    2s
H    0     0                    194932.00000 31271.9790  84.0%     -    2s
     0     0 31281.1395    0  387 194932.000 31281.1395  84.0%     -    2s
     0     0 31281.3021    0  387 194932.000 31281.3021  84.0%     -    2s
H    0     0                    187397.00000 36631.2966  80.5%     -    4s
H    0     0                    187210.00000 36631.2966  80.4%     -    4s
     0     0 36631.2966    0  476 187210.000 36631.2966  80.4%     -    4s
H    0     0                    187209.00000 36631.2966  80.4%     -    4s
     0     0 36752.1585    0  460 187209.000 36752.1585  80.4%     -    4s
     0     0 36755.0864    0  455 187209.000 36755.0864  80.4%     -    4s
     0     0 36755.0864    0  457 187209.000 36755.0864  80.4%     -    4s
     0     0 62032.0310    0  430 187209.000 62032.0310  66.9%     -    6s
H    0     0                    187205.00000 62032.0310  66.9%     -    6s
     0     0 62394.6943    0  485 187205.000 62394.6943  66.7%     -    6s
     0     0 62507.5614    0  422 187205.000 62507.5614  66.6%     -    7s
     0     0 62517.1604    0  453 187205.000 62517.1604  66.6%     -    7s
H    0     0                    182822.00000 62521.0831  65.8%     -    7s
     0     0 62521.0831    0  470 182822.000 62521.0831  65.8%     -    7s
     0     0 77987.5254    0  447 182822.000 77987.5254  57.3%     -    8s
     0     0 77987.5254    0  279 182822.000 77987.5254  57.3%     -   10s
H    0     0                    182812.00005 77987.5254  57.3%     -   10s
H    0     0                    182787.00000 77987.5254  57.3%     -   10s
     0     0 77987.5254    0  442 182787.000 77987.5254  57.3%     -   11s
     0     0 78162.7238    0  481 182787.000 78162.7238  57.2%     -   12s
     0     0 78329.3469    0  487 182787.000 78329.3469  57.1%     -   12s
     0     0 78348.9655    0  496 182787.000 78348.9655  57.1%     -   13s
     0     0 78362.8589    0  494 182787.000 78362.8589  57.1%     -   13s
     0     0 78363.5156    0  492 182787.000 78363.5156  57.1%     -   13s
H    0     0                    182750.00000 78363.5156  57.1%     -   14s
     0     0 81309.0616    0  489 182750.000 81309.0616  55.5%     -   14s
H    0     0                    182742.00000 81309.0616  55.5%     -   14s
     0     0 84056.7218    0  505 182742.000 84056.7218  54.0%     -   16s
     0     0 85056.6830    0  522 182742.000 85056.6830  53.5%     -   16s
     0     0 85088.1795    0  511 182742.000 85088.1795  53.4%     -   16s
     0     0 85093.0842    0  505 182742.000 85093.0842  53.4%     -   16s
     0     0 88890.1576    0  542 182742.000 88890.1576  51.4%     -   19s
     0     0 89355.0820    0  569 182742.000 89355.0820  51.1%     -   19s
H    0     0                    177448.00000 89355.0820  49.6%     -   20s
     0     0 89396.7708    0  592 177448.000 89396.7708  49.6%     -   20s
     0     0 89407.2606    0  592 177448.000 89407.2606  49.6%     -   20s
     0     0 92875.6717    0  578 177448.000 92875.6717  47.7%     -   23s
     0     0 100155.960    0  588 177448.000 100155.960  43.6%     -   24s
     0     0 100643.901    0  600 177448.000 100643.901  43.3%     -   25s
     0     0 100765.203    0  600 177448.000 100765.203  43.2%     -   25s
     0     0 100778.626    0  616 177448.000 100778.626  43.2%     -   25s
     0     0 104933.750    0  642 177448.000 104933.750  40.9%     -   27s
H    0     0                    177431.00000 104933.750  40.9%     -   27s
     0     0 106991.747    0  602 177431.000 106991.747  39.7%     -   28s
     0     0 107206.818    0  635 177431.000 107206.818  39.6%     -   28s
     0     0 107305.388    0  642 177431.000 107305.388  39.5%     -   29s
     0     0 107309.502    0  643 177431.000 107309.502  39.5%     -   29s
     0     0 111902.449    0  673 177431.000 111902.449  36.9%     -   30s
     0     0 112317.328    0  645 177431.000 112317.328  36.7%     -   30s
     0     0 112387.954    0  673 177431.000 112387.954  36.7%     -   31s
     0     0 112420.888    0  667 177431.000 112420.888  36.6%     -   31s
     0     0 114625.249    0  696 177431.000 114625.249  35.4%     -   32s
H    0     0                    177418.00000 114625.249  35.4%     -   32s
     0     0 115310.199    0  684 177418.000 115310.199  35.0%     -   33s
     0     0 115386.750    0  698 177418.000 115386.750  35.0%     -   33s
     0     0 115448.890    0  699 177418.000 115448.890  34.9%     -   34s
     0     0 115462.467    0  686 177418.000 115462.467  34.9%     -   34s
     0     0 117306.898    0  668 177418.000 117306.898  33.9%     -   35s
H    0     0                    177416.00000 117306.898  33.9%     -   35s
     0     0 117818.671    0  685 177416.000 117818.671  33.6%     -   36s
     0     0 117901.518    0  722 177416.000 117901.518  33.5%     -   37s
     0     0 117930.046    0  712 177416.000 117930.046  33.5%     -   37s
     0     0 119458.378    0  650 177416.000 119458.378  32.7%     -   38s
     0     0 119824.928    0  702 177416.000 119824.928  32.5%     -   39s
     0     0 119889.565    0  716 177416.000 119889.565  32.4%     -   39s
     0     0 119893.285    0  728 177416.000 119893.285  32.4%     -   39s
     0     0 120250.862    0  680 177416.000 120250.862  32.2%     -   40s
     0     0 120484.977    0  757 177416.000 120484.977  32.1%     -   41s
     0     0 120510.207    0  765 177416.000 120510.207  32.1%     -   41s
H    0     0                    177400.00000 120510.207  32.1%     -   43s
     0     0 121881.077    0  744 177400.000 121881.077  31.3%     -   43s
     0     0 122071.065    0  741 177400.000 122071.065  31.2%     -   44s
     0     0 122246.774    0  753 177400.000 122246.774  31.1%     -   45s
     0     0 122253.063    0  750 177400.000 122253.063  31.1%     -   45s
     0     0 122494.762    0  748 177400.000 122494.762  30.9%     -   46s
     0     0 122494.762    0  742 177400.000 122494.762  30.9%     -   47s
H    0     0                    177366.00000 122494.762  30.9%     -   48s
H    0     0                    177352.00000 122503.963  30.9%     -   48s
H    0     2                    177351.00000 122503.963  30.9%     -   48s
     0     2 122503.963    0  734 177351.000 122503.963  30.9%     -   48s
     1     4 123159.606    1  695 177351.000 122503.963  30.9%  6585   51s
     3     8 141474.335    2  626 177351.000 123159.606  30.6% 14258   57s
     7    14     cutoff    3      177351.000 124987.124  29.5% 12293   64s
    15    20 infeasible    4      177351.000 129122.355  27.2% 16795   66s
    31    32 166322.274    6  608 177351.000 129348.599  27.1% 13008   71s
H   34    32                    174827.00000 129348.599  26.0% 12136   71s
H   38    32                    152855.00000 129348.599  15.4% 11607   71s
    47    27     cutoff    7      152855.000 129940.209  15.0% 10232   75s
H   69    27                    152773.00000 129944.569  14.9%  8339   83s
H   70    27                    152614.00000 129944.569  14.9%  8334   83s
H   74    27                    152580.00000 129944.569  14.8%  8251   83s
H   74    27                    137423.00000 129944.569  5.44%  8251   83s
    89    18     cutoff    8      137423.000 129944.569  5.44%  8087   86s
   108    15     cutoff    7      137423.000 129944.569  5.44%  7850   90s
H  109    15                    137204.00000 129944.569  5.29%  7778   90s
H  112    15                    137092.00000 129944.569  5.21%  7706   90s
H  117    15                    136562.00000 129944.569  4.85%  7793   90s
H  146    40                    136481.00000 131300.385  3.80%  6949   94s
H  154    40                    136428.00000 131300.385  3.76%  6606   94s
H  208   112                    136358.00000 131300.385  3.71%  5082   95s
H  212   112                    136355.00000 131300.385  3.71%  4997   95s
H  306   168                    136348.00000 131300.385  3.70%  3599   97s
H  403   192                    136347.00000 131596.714  3.48%  2829  101s
H  468   237                    136300.00000 131596.714  3.45%  2499  102s
H  570   308                    136261.00000 131596.714  3.42%  2126  103s
   721   370 136231.832   31  217 136261.000 135991.587  0.20%  1740  108s
H  756   370                    136249.00000 136015.269  0.17%  1701  108s
H  831   446                    136242.00000 136015.885  0.17%  1595  110s
H  914   523                    136237.00000 136015.885  0.16%  1472  111s
  1248   628 136102.511   38  184 136237.000 136015.885  0.16%  1156  115s
  1993   968 136186.777   28  176 136237.000 136033.000  0.15%   863  121s
  2213  1106 136118.705   24  254 136237.000 136040.012  0.14%   821  126s
  2668  1422     cutoff   23      136237.000 136051.517  0.14%   759  130s
  3534  1708 136180.047   26  447 136237.000 136057.552  0.13%   660  139s
  3536  1709 136221.467   46  293 136237.000 136057.552  0.13%   660  140s
  3543  1714 136093.324   25  680 136237.000 136057.552  0.13%   659  145s
  3552  1720 136210.081   42  722 136237.000 136057.552  0.13%   657  151s
  3560  1725 136167.614   50  801 136237.000 136057.552  0.13%   656  155s
  3569  1731 136134.417   33  738 136237.000 136057.552  0.13%   654  160s
  3577  1737 136064.025   26  821 136237.000 136057.552  0.13%   653  165s
  3587  1743 136173.406   25  759 136237.000 136057.552  0.13%   651  170s
  3593  1747 136101.524   27  780 136237.000 136057.552  0.13%   650  175s
  3635  1779 136189.537   18  447 136237.000 136189.537  0.03%   702  180s

Cutting planes:
  Gomory: 8
  Cover: 4
  Projected implied bound: 1
  Clique: 56
  MIR: 45
  StrongCG: 37
  Flow cover: 46
  GUB cover: 35
  Zero half: 20

Explored 3730 nodes (2850997 simplex iterations) in 183.11 seconds (508.07 work units)
Thread count was 8 (of 8 available processors)

Solution count 10: 136237 136242 136249 ... 136428

Optimal solution found (tolerance 1.00e-04)
Best objective 1.362370000000e+05, best bound 1.362260000000e+05, gap 0.0081%
